
Gurobi 7.5.2 (linux64) logging started Sat Jul  7 16:15:29 2018

Changed value of parameter LogFile to result/ilp/simNo_6-n_100-m_40-s_7-minVAF_0.05-cov_10000-k_1-fn_0.25-fp_0.0001-na_0.15.ILP.gurobiSolverLog
   Prev: gurobi.log  Default: 
Changed value of parameter TimeLimit to 86400.0
   Prev: 1e+100  Min: 0.0  Max: 1e+100  Default: 1e+100
Optimize a model with 639293 rows, 10765 columns and 1940420 nonzeros
Variable types: 0 continuous, 10765 integer (10765 binary)
Coefficient statistics:
  Matrix range     [9e-05, 4e+00]
  Objective range  [1e+00, 2e+01]
  Bounds range     [1e+00, 1e+00]
  RHS range        [8e-02, 2e+00]
Found heuristic solution: objective -9669.046363
Presolve removed 142019 rows and 1123 columns (presolve time = 5s) ...
Presolve removed 142697 rows and 1123 columns (presolve time = 10s) ...
Presolve removed 210497 rows and 1801 columns (presolve time = 15s) ...
Presolve removed 210497 rows and 1801 columns
Presolve time: 15.15s
Presolved: 428796 rows, 8964 columns, 1288309 nonzeros
Variable types: 0 continuous, 8964 integer (8964 binary)
Presolved: 8964 rows, 437760 columns, 1297273 nonzeros

Presolve removed 8964 rows and 437760 columns

Root simplex log...

Iteration    Objective       Primal Inf.    Dual Inf.      Time
       0    2.3216824e+01   0.000000e+00   4.635900e+04     18s
   20374   -2.7947039e+02   0.000000e+00   7.209077e+04     20s
   31095   -3.0529658e+02   0.000000e+00   0.000000e+00     23s
   31095   -3.0529658e+02   0.000000e+00   0.000000e+00     23s

Root relaxation: objective -3.052966e+02, 31095 iterations, 6.86 seconds
Total elapsed time = 42.44s
Total elapsed time = 45.68s

    Nodes    |    Current Node    |     Objective Bounds      |     Work
 Expl Unexpl |  Obj  Depth IntInf | Incumbent    BestBd   Gap | It/Node Time

     0     0 -305.29658    0 1604 -9669.0464 -305.29658  96.8%     -   50s
H    0     0                    -382.6642319 -305.29658  20.2%     -   54s
H    0     0                    -321.7900649 -305.29658  5.13%     -   56s
     0     0 -307.39930    0 1638 -321.79006 -307.39930  4.47%     -   67s
H    0     0                    -320.6591918 -307.39930  4.14%     -   71s
     0     0 -307.46998    0 1639 -320.65919 -307.46998  4.11%     -   73s
     0     0 -309.44899    0 1605 -320.65919 -309.44899  3.50%     -   85s
     0     0 -309.64217    0 1656 -320.65919 -309.64217  3.44%     -   90s
     0     0 -309.80662    0 1661 -320.65919 -309.80662  3.38%     -  101s
H    0     0                    -317.2176471 -309.80662  2.34%     -  104s
     0     0 -309.92106    0 1658 -317.21765 -309.92106  2.30%     -  106s
     0     0 -309.92318    0 1653 -317.21765 -309.92318  2.30%     -  108s
     0     0 -310.37106    0 1619 -317.21765 -310.37106  2.16%     -  144s
     0     0 -310.37106    0  365 -317.21765 -310.37106  2.16%     -  183s
H    0     0                    -316.0867740 -310.37106  1.81%     -  187s
     0     0 -311.78903    0  453 -316.08677 -311.78903  1.36%     -  189s
     0     0 -312.26918    0  446 -316.08677 -312.26918  1.21%     -  193s
     0     0 -313.62454    0  379 -316.08677 -313.62454  0.78%     -  197s
     0     0 -313.62454    0  310 -316.08677 -313.62454  0.78%     -  203s
     0     0 -313.62454    0  218 -316.08677 -313.62454  0.78%     -  204s
     0     0 -313.62454    0  305 -316.08677 -313.62454  0.78%     -  204s
     0     0 -313.96477    0  183 -316.08677 -313.96477  0.67%     -  205s
     0     0 -313.96477    0  287 -316.08677 -313.96477  0.67%     -  207s
     0     0 -313.96477    0  215 -316.08677 -313.96477  0.67%     -  208s
     0     0 -313.96477    0  220 -316.08677 -313.96477  0.67%     -  208s
     0     0 -314.01135    0  209 -316.08677 -314.01135  0.66%     -  208s
     0     0 -314.01135    0  265 -316.08677 -314.01135  0.66%     -  209s
     0     0 -314.01135    0  210 -316.08677 -314.01135  0.66%     -  209s
     0     0 -314.01135    0  211 -316.08677 -314.01135  0.66%     -  209s
     0     0 -314.01135    0  209 -316.08677 -314.01135  0.66%     -  209s
     0     0 -314.10061    0  254 -316.08677 -314.10061  0.63%     -  209s
     0     0 -314.12710    0  257 -316.08677 -314.12710  0.62%     -  209s
     0     0 -314.12710    0  250 -316.08677 -314.12710  0.62%     -  209s
     0     0 -314.14148    0  250 -316.08677 -314.14148  0.62%     -  210s
     0     0 -314.14148    0  250 -316.08677 -314.14148  0.62%     -  210s
     0     0 -314.16226    0  249 -316.08677 -314.16226  0.61%     -  210s
     0     0 -314.26147    0  247 -316.08677 -314.26147  0.58%     -  210s
     0     0 -314.26147    0  248 -316.08677 -314.26147  0.58%     -  210s
     0     0 -314.26147    0  249 -316.08677 -314.26147  0.58%     -  210s
     0     0 -314.26147    0  249 -316.08677 -314.26147  0.58%     -  210s
     0     0 -314.55856    0  248 -316.08677 -314.55856  0.48%     -  210s
     0     0 -314.58016    0  250 -316.08677 -314.58016  0.48%     -  210s
     0     0 -314.58016    0  249 -316.08677 -314.58016  0.48%     -  210s
     0     0 -314.89370    0  252 -316.08677 -314.89370  0.38%     -  210s
     0     0 -314.95386    0  253 -316.08677 -314.95386  0.36%     -  210s
     0     0 -314.95386    0  256 -316.08677 -314.95386  0.36%     -  210s
     0     0 -315.12932    0  253 -316.08677 -315.12932  0.30%     -  210s
     0     0 -315.17949    0  249 -316.08677 -315.17949  0.29%     -  210s
     0     0 -315.17949    0  249 -316.08677 -315.17949  0.29%     -  210s
     0     0 -315.17949    0  247 -316.08677 -315.17949  0.29%     -  211s
     0     0 -315.17949    0  159 -316.08677 -315.17949  0.29%     -  211s
     0     0 -315.17949    0   98 -316.08677 -315.17949  0.29%     -  211s
     0     0 -315.17949    0  224 -316.08677 -315.17949  0.29%     -  211s
     0     0 -315.17949    0  224 -316.08677 -315.17949  0.29%     -  211s
     0     0 -315.17949    0  227 -316.08677 -315.17949  0.29%     -  211s
     0     0 -315.17949    0  218 -316.08677 -315.17949  0.29%     -  211s
     0     0 -315.51152    0  221 -316.08677 -315.51152  0.18%     -  211s
     0     0 -315.52745    0  219 -316.08677 -315.52745  0.18%     -  211s
     0     0 -315.52745    0  219 -316.08677 -315.52745  0.18%     -  211s
     0     0 -315.71779    0  203 -316.08677 -315.71779  0.12%     -  211s
     0     0 -315.82340    0  225 -316.08677 -315.82340  0.08%     -  211s
     0     0 -315.84943    0  215 -316.08677 -315.84943  0.08%     -  211s
     0     0 -315.95533    0  117 -316.08677 -315.95533  0.04%     -  211s
     0     0 -315.97176    0  118 -316.08677 -315.97176  0.04%     -  211s
     0     0 -315.97176    0  108 -316.08677 -315.97176  0.04%     -  211s
     0     0 -315.97176    0  117 -316.08677 -315.97176  0.04%     -  211s
     0     0 -315.97176    0  118 -316.08677 -315.97176  0.04%     -  211s
     0     0 -315.97176    0  118 -316.08677 -315.97176  0.04%     -  211s
     0     0 -315.97176    0   94 -316.08677 -315.97176  0.04%     -  211s
     0     0 -315.97176    0  118 -316.08677 -315.97176  0.04%     -  211s
     0     0 -315.97176    0  116 -316.08677 -315.97176  0.04%     -  212s
     0     0 -315.97176    0  117 -316.08677 -315.97176  0.04%     -  212s
     0     0 -315.97176    0  117 -316.08677 -315.97176  0.04%     -  212s

Cutting planes:
  Gomory: 5
  Implied bound: 1
  Zero half: 34

Explored 1 nodes (69826 simplex iterations) in 212.27 seconds
Thread count was 1 (of 80 available processors)

Solution count 10: -316.087 -316.087 -316.087 ... -9669.05

Optimal solution found (tolerance 1.00e-04)
Best objective -3.160867739844e+02, best bound -3.160867739844e+02, gap 0.0000%
